c WARNING: for repeatability, setting FPU to use double precision
d VARIABLES            228582       
d CONSTRAINTS          990521       
c ============================[ Problem Statistics ]=============================
c |                                                                             |
c |  Number of variables:        228582                                         |
c |  Number of clauses:          990521                                         |
c |  Parse time:                   0.17 s                                       |
c |                                                                             |
c ============================[ Search Statistics ]==============================
c | Conflicts |          ORIGINAL         |          LEARNT          | Progress |
c |           |    Vars  Clauses Literals |    Limit  Clauses Lit/Cl |          |
c ===============================================================================
c |       100 |  187521   883703  2144377 |   324024      100      7 | 17.963 % |
c |       250 |  187521   883703  2144377 |   356426      250     37 | 17.963 % |
c |       475 |  187521   883703  2144377 |   392069      475     48 | 17.963 % |
c |       812 |  187521   883703  2144377 |   431276      812     49 | 17.963 % |
c |      1318 |  187521   883703  2144377 |   474404     1318     83 | 17.963 % |
c |      2077 |  187521   883703  2144377 |   521844     2077     94 | 17.963 % |
c |      3216 |  187521   883703  2144377 |   574029     3216    122 | 17.963 % |
c |      4924 |  187520   883694  2144357 |   631431     4918    105 | 17.964 % |
c |      7486 |  187517   883679  2144319 |   694575     7477    115 | 17.965 % |
c |     11330 |  187440   883148  2143020 |   764032    11182    103 | 17.999 % |
c ===============================================================================
c restarts              : 62
c conflicts             : 15557          (2119 /sec)
c decisions             : 170555         (0.00 % random) (23235 /sec)
c propagations          : 41436564       (5644956 /sec)
c conflict literals     : 1323504        (6.87 % deleted)
d RESTARTS             62
d FAILURES             15557        
d NODES                170555       
d BACKTRACKS           170555       
d PROPAGATIONS         41436564     
d NOGOODSIZE           85.07 
d MEMORY               83.00 
d TIME                 7.34046 

s UNSATISFIABLE
